% demand
num_movements = 20;
loading_factor = [950, 900, 1550, 1850, 1250, 1750, 800, 1150, 1350, 1050, 1150, 1550, 900, 900, 1350, 1900, 1100, 1750, 950, 1050];
pickup_time = [0, 0, 0, 1, 1, 1, 1, 1, 2, 4, 4, 4, 5, 5, 5, 6, 6, 6, 6, 6];
delivery_time = [1, 1, 1, 4, 4, 4, 4, 2, 4, 6, 5, 6, 6, 6, 6, 7, 7, 7, 7, 7];

% transporter definition
total_capacity = 7000;
num_decks = 3;
capacity = [3000, 1000, 3000];

% ways out of decks
num_ways_out = 1;
paths_out = array3d(decks, ways_out, decks, [
% ways out of deck d1
2, 3, 0, 

% ways out of deck d2
3, 0, 0, 

% ways out of deck d3
0, 0, 0,	

]);

